proyfinal/src/viki/013/experimentInOfficeAgust.take6.output/2375a3da-ddff-40d8-8f1c-5da94ee66df7.als.dat
{'cnf.clauses': '118081',
 'cnf.totvars': '69608',
 'conflict literals': '50',
 'conflicts': '20',
 'decisions': '6386',
 'memused.mb': '17.84',
 'outcome': 'UNSAT',
 'propagations': '32080',
 'restarts': '1',
 'solver.msecs': 37,
 'task.msecs': 91}
