proyfinal/src/viki/013/experimentInOfficeAgust.take6.output/2375a3da-ddff-40d8-8f1c-5da94ee66df7.als.out
Reading from standard input... Use '--help' for help.
============================[ Problem Statistics ]=============================
|                                                                             |
|  Number of variables:         69608                                         |
|  Number of clauses:          118081                                         |
|  Parse time:                   0.03 s                                       |
|                                                                             |
============================[ Search Statistics ]==============================
| Conflicts |          ORIGINAL         |          LEARNT          | Progress |
|           |    Vars  Clauses Literals |    Limit  Clauses Lit/Cl |          |
===============================================================================
===============================================================================
restarts              : 1
conflicts             : 20             (530 /sec)
decisions             : 6386           (0.00 % random) (169358 /sec)
propagations          : 32080          (850770 /sec)
conflict literals     : 50             (0.00 % deleted)
Memory used           : 17.84 MB
CPU time              : 0.037707 s

UNSATISFIABLE
